32      4       
16      14      15      20      
0       0       0       0       0       1       2       
5       10      0       3       0       1       3       
5       0       11      15      0       1       4       
8       0       12      0       11      1       5       
8       0       14      15      0       1       6       
2       5       0       0       20      1       7       
8       15      0       15      0       3       19      16      8       
2       16      0       0       20      1       9       
2       14      0       15      0       2       14      10      
1       7       0       0       19      1       11      
3       0       0       15      1       1       12      
4       12      0       0       12      1       13      
8       16      0       15      0       1       15      
7       0       12      7       0       1       15      
1       0       7       0       10      1       17      
6       15      0       0       17      1       17      
1       0       5       0       20      1       18      
7       0       14      0       19      1       20      
9       0       8       11      0       1       20      
4       16      10      0       0       1       21      
5       16      0       0       20      1       22      
2       0       0       10      13      1       23      
9       0       6       8       0       1       24      
3       8       14      0       0       1       25      
9       0       0       15      10      1       26      
5       13      0       0       17      1       27      
10      0       9       0       16      1       28      
1       0       12      7       0       1       29      
1       2       0       10      0       1       30      
9       15      14      0       0       1       31      
3       0       10      8       0       1       32      
0       0       0       0       0       0       
